N = 6;
M = 12;
Edge_Start = [1, 1, 2, 3, 4, 5, 2, 4, 3, 6, 5, 6];
Edge_End = [2, 4, 3, 6, 5, 6, 1, 1, 2, 3, 4, 5];
L = [11, 8, 8, 10, 1, 1, 11, 8, 8, 10, 1, 1];
T = [13, 5, 12, 3, 1, 6, 13, 5, 12, 3, 1, 6];
Lower_Bound = [0, 13, 15, 5, 6, 12];
Upper_Bound = [0, 13, 15, 5, 6, 12];
Start = 1;
End = 6;
Time = 12;
